\ Model BinPackProb
\ LP format - for model browsing. Use MPS format to capture full model detail.
Minimize
  G[0] + G[1] + G[2] + G[3]
Subject To
 Assignment[9]: C[0,9] + C[1,9] + C[2,9] + C[3,9] = 1
 Assignment[25]: C[0,25] + C[1,25] + C[2,25] + C[3,25] = 1
 Assignment[0]: C[0,0] + C[1,0] + C[2,0] + C[3,0] = 1
 Assignment[37]: C[0,37] + C[1,37] + C[2,37] + C[3,37] = 1
 Assignment[30]: C[0,30] + C[1,30] + C[2,30] + C[3,30] = 1
 Assignment[18]: C[0,18] + C[1,18] + C[2,18] + C[3,18] = 1
 Assignment[47]: C[0,47] + C[1,47] + C[2,47] + C[3,47] = 1
 Assignment[48]: C[0,48] + C[1,48] + C[2,48] + C[3,48] = 1
 Assignment[34]: C[0,34] + C[1,34] + C[2,34] + C[3,34] = 1
 Assignment[14]: C[0,14] + C[1,14] + C[2,14] + C[3,14] = 1
 Assignment[1]: C[0,1] + C[1,1] + C[2,1] + C[3,1] = 1
 Assignment[8]: C[0,8] + C[1,8] + C[2,8] + C[3,8] = 1
 Assignment[39]: C[0,39] + C[1,39] + C[2,39] + C[3,39] = 1
 Capacity[0]: - 10 G[0] + 5.1 C[0,9] + 4 C[0,25] + 3.4 C[0,0] + 1.9 C[0,37]
   + 1.4 C[0,30] + 0.5 C[0,18] + 1.7 C[0,47] + 4.1 C[0,48] + 2.2 C[0,34]
   + 2 C[0,14] + 2.7 C[0,1] + 4.5 C[0,8] + 2.8 C[0,39] <= 0
 Capacity[1]: - 10 G[1] + 5.1 C[1,9] + 4 C[1,25] + 3.4 C[1,0] + 1.9 C[1,37]
   + 1.4 C[1,30] + 0.5 C[1,18] + 1.7 C[1,47] + 4.1 C[1,48] + 2.2 C[1,34]
   + 2 C[1,14] + 2.7 C[1,1] + 4.5 C[1,8] + 2.8 C[1,39] <= 0
 Capacity[2]: - 10 G[2] + 5.1 C[2,9] + 4 C[2,25] + 3.4 C[2,0] + 1.9 C[2,37]
   + 1.4 C[2,30] + 0.5 C[2,18] + 1.7 C[2,47] + 4.1 C[2,48] + 2.2 C[2,34]
   + 2 C[2,14] + 2.7 C[2,1] + 4.5 C[2,8] + 2.8 C[2,39] <= 0
 Capacity[3]: - 10 G[3] + 5.1 C[3,9] + 4 C[3,25] + 3.4 C[3,0] + 1.9 C[3,37]
   + 1.4 C[3,30] + 0.5 C[3,18] + 1.7 C[3,47] + 4.1 C[3,48] + 2.2 C[3,34]
   + 2 C[3,14] + 2.7 C[3,1] + 4.5 C[3,8] + 2.8 C[3,39] <= 0
 Sorting[1]: - G[0] + G[1] <= 0
 Sorting[2]: - G[1] + G[2] <= 0
 Sorting[3]: - G[2] + G[3] <= 0
Bounds
Binaries
 G[0] G[1] G[2] G[3] C[0,9] C[0,25] C[0,0] C[0,37] C[0,30] C[0,18] C[0,47]
 C[0,48] C[0,34] C[0,14] C[0,1] C[0,8] C[0,39] C[1,9] C[1,25] C[1,0]
 C[1,37] C[1,30] C[1,18] C[1,47] C[1,48] C[1,34] C[1,14] C[1,1] C[1,8]
 C[1,39] C[2,9] C[2,25] C[2,0] C[2,37] C[2,30] C[2,18] C[2,47] C[2,48]
 C[2,34] C[2,14] C[2,1] C[2,8] C[2,39] C[3,9] C[3,25] C[3,0] C[3,37]
 C[3,30] C[3,18] C[3,47] C[3,48] C[3,34] C[3,14] C[3,1] C[3,8] C[3,39]
End
